(declare-const X String)
; Host\x3A\dKeylogger.*Onetrustyfiles\x2Ecom
(assert (str.in_re X (re.++ (str.to_re "Host:") (re.range "0" "9") (str.to_re "Keylogger") (re.* re.allchar) (str.to_re "Onetrustyfiles.com\u{a}"))))
; wjpropqmlpohj\x2flo\s+media\x2Edxcdirect\x2Ecom
(assert (str.in_re X (re.++ (str.to_re "wjpropqmlpohj/lo") (re.+ (re.union (str.to_re " ") (str.to_re "\u{9}") (str.to_re "\u{a}") (str.to_re "\u{c}") (str.to_re "\u{d}"))) (str.to_re "media.dxcdirect.com\u{a}"))))
; (\+)?(\()?(\d+){1,4}(\))?(\s)?(-)?(\d+){1,3}(\s)?(-)?(\d+){1,4}(\s)?(-)?(\d+){1,4}(\s)?(-)?(\d+){1,4}
(assert (not (str.in_re X (re.++ (re.opt (str.to_re "+")) (re.opt (str.to_re "(")) ((_ re.loop 1 4) (re.+ (re.range "0" "9"))) (re.opt (str.to_re ")")) (re.opt (re.union (str.to_re " ") (str.to_re "\u{9}") (str.to_re "\u{a}") (str.to_re "\u{c}") (str.to_re "\u{d}"))) (re.opt (str.to_re "-")) ((_ re.loop 1 3) (re.+ (re.range "0" "9"))) (re.opt (re.union (str.to_re " ") (str.to_re "\u{9}") (str.to_re "\u{a}") (str.to_re "\u{c}") (str.to_re "\u{d}"))) (re.opt (str.to_re "-")) ((_ re.loop 1 4) (re.+ (re.range "0" "9"))) (re.opt (re.union (str.to_re " ") (str.to_re "\u{9}") (str.to_re "\u{a}") (str.to_re "\u{c}") (str.to_re "\u{d}"))) (re.opt (str.to_re "-")) ((_ re.loop 1 4) (re.+ (re.range "0" "9"))) (re.opt (re.union (str.to_re " ") (str.to_re "\u{9}") (str.to_re "\u{a}") (str.to_re "\u{c}") (str.to_re "\u{d}"))) (re.opt (str.to_re "-")) ((_ re.loop 1 4) (re.+ (re.range "0" "9"))) (str.to_re "\u{a}")))))
(check-sat)

(exit)
